p wcnf 3000 300 1
1 1 0
1 2 0
1 3 0
1 4 0
1 5 0
1 6 0
1 7 0
1 8 0
1 9 0
1 10 0
1 11 0
1 12 0
1 13 0
1 14 0
1 15 0
1 1 1 1 1 1 1 2 2 2 2 2 2 2 2 0
1 2 2 2 2 2 2 2 2 2 2 2 2 2 2 0
1 2 2 2 2 2 2 2 2 2 2 2 3 3 3 0
1 3 3 3 3 3 3 3 3 3 3 3 3 3 3 0
1 3 3 3 3 3 3 3 3 3 3 3 4 4 4 0
1 4 4 4 4 4 4 4 4 4 4 4 4 4 4 0
1 4 4 4 4 4 4 4 4 5 5 5 5 5 5 0
1 5 5 5 5 5 5 5 5 5 5 5 5 5 5 0
1 5 5 5 5 6 6 6 6 6 6 6 6 6 6 0
1 6 6 6 6 6 6 6 6 6 6 6 6 6 6 0
1 6 6 6 7 7 7 7 7 7 7 7 7 7 7 0
1 7 7 7 7 7 7 7 7 7 7 7 7 7 7 0
1 7 7 7 7 7 7 8 8 8 8 8 8 8 8 0
1 8 8 8 8 8 8 8 8 8 8 8 8 8 8 0
1 8 9 9 9 9 9 9 9 9 9 9 9 9 9 0
1 9 9 9 9 9 9 9 9 9 9 9 9 9 9 0
1 9 9 9 9 9 9 9 9 10 10 10 10 10 10 0
1 10 10 10 10 10 10 10 10 10 10 10 10 10 10 0
1 10 10 10 10 10 10 10 10 10 10 11 11 11 11 0
1 11 11 11 11 11 11 11 11 11 11 11 11 11 11 0
1 11 11 11 11 11 11 11 12 12 12 12 12 12 12 0
1 12 12 12 12 12 12 12 12 12 12 12 12 12 13 0
1 13 13 13 13 13 13 13 13 13 13 13 13 13 13 0
1 13 13 13 13 13 13 13 13 13 13 13 13 13 13 0
1 13 13 13 14 14 14 14 14 14 14 14 14 14 14 0
1 14 14 14 14 14 14 14 14 14 14 14 14 14 14 0
1 14 14 14 14 14 14 14 15 15 15 15 15 15 15 0
1 15 15 15 15 15 15 15 15 15 15 15 15 15 15 0
1 15 15 15 16 16 16 16 16 16 16 16 16 16 16 0
1 16 16 16 16 16 16 16 16 16 16 16 16 16 16 0
1 17 17 17 17 17 17 17 17 17 17 17 17 17 17 0
1 17 17 17 17 17 17 17 17 17 17 17 17 17 17 0
1 17 17 17 17 17 17 17 17 17 17 17 17 17 17 0
1 17 18 18 18 18 18 18 18 18 18 18 18 18 18 0
1 18 18 18 18 18 18 18 18 18 18 18 18 19 19 0
1 19 19 19 19 19 19 19 19 19 19 19 19 19 19 0
1 19 19 19 19 19 19 20 20 20 20 20 20 20 20 0
1 20 20 20 20 20 20 20 20 20 20 20 20 20 20 0
1 20 21 21 21 21 21 21 21 21 21 21 21 21 21 0
1 21 21 21 21 21 21 21 21 21 21 21 21 21 21 0
1 22 22 22 22 22 22 22 22 22 22 22 22 22 22 0
1 22 22 22 22 22 22 22 22 22 22 22 22 22 22 0
1 22 22 22 22 22 23 23 23 23 23 23 23 23 23 0
1 23 23 23 23 23 23 23 23 23 23 23 23 23 24 0
1 24 24 24 24 24 24 24 24 24 24 24 24 24 24 0
1 24 24 24 24 24 24 24 24 24 24 24 24 24 24 0
1 24 25 25 25 25 25 25 25 25 25 25 25 25 25 0
1 25 25 25 25 25 25 25 25 25 26 26 26 26 26 0
1 26 26 26 26 26 26 26 26 26 26 26 26 26 26 0
1 26 26 26 27 27 27 27 27 27 27 27 27 27 27 0
1 27 27 27 27 27 27 27 27 27 27 27 28 28 28 0
1 28 28 28 28 28 28 28 28 28 28 28 28 28 28 0
1 28 28 28 28 28 28 28 28 28 28 28 28 28 28 0
1 29 29 29 29 29 29 29 29 29 29 29 29 29 29 0
1 29 29 29 29 29 29 29 29 29 29 29 29 29 29 0
1 29 29 30 30 30 30 30 30 30 30 30 30 30 30 0
1 30 30 30 30 30 30 30 30 30 30 30 30 30 30 0
1 30 31 31 31 31 31 31 31 31 31 31 31 31 31 0
1 31 31 31 31 31 31 31 31 31 31 31 31 31 31 0
1 31 31 31 31 31 31 31 31 31 31 32 32 32 32 0
1 32 32 32 32 32 32 32 32 32 32 32 32 32 32 0
1 32 32 33 33 33 33 33 33 33 33 33 33 33 33 0
1 33 33 33 33 33 33 33 33 33 33 33 33 33 33 0
1 33 33 33 33 33 33 33 33 34 34 34 34 34 34 0
1 34 34 34 34 34 34 34 34 34 34 34 34 34 34 0
1 34 34 34 34 34 34 34 34 34 35 35 35 35 35 0
1 35 35 35 35 35 35 35 35 35 35 35 35 35 35 0
1 35 35 35 35 35 35 35 35 35 35 35 35 35 35 0
1 36 36 36 36 36 36 36 36 36 36 36 36 36 36 0
1 36 36 36 36 36 36 36 36 36 36 36 36 36 36 0
1 36 37 37 37 37 37 37 37 37 37 37 37 37 37 0
1 37 37 37 37 37 37 37 38 38 38 38 38 38 38 0
1 38 38 38 38 38 38 38 38 38 38 38 38 38 38 0
1 38 38 38 39 39 39 39 39 39 39 39 39 39 39 0
1 39 39 39 39 39 39 39 39 39 39 39 39 39 39 0
1 40 40 40 40 40 40 40 40 40 40 40 40 40 40 0
1 40 40 40 40 40 40 40 40 40 40 40 40 40 40 0
1 40 40 41 41 41 41 41 41 41 41 41 41 41 41 0
1 41 41 41 41 41 41 41 41 41 41 41 41 41 41 0
1 41 42 42 42 42 42 42 42 42 42 42 42 42 42 0
1 42 42 42 42 42 42 42 42 42 42 42 42 42 42 0
1 43 43 43 43 43 43 43 43 43 43 43 43 43 43 0
1 43 43 43 43 43 43 43 43 43 43 43 43 43 43 0
1 44 44 44 44 44 44 44 44 44 44 44 44 44 44 0
1 44 44 44 44 44 44 44 44 44 44 44 44 44 44 0
1 44 45 45 45 45 45 45 45 45 45 45 45 45 45 0
1 45 45 45 45 45 45 45 45 45 45 45 45 45 45 0
1 45 46 46 46 46 46 46 46 46 46 46 46 46 46 0
1 46 46 46 46 46 46 46 46 46 46 46 46 46 46 0
1 47 47 47 47 47 47 47 47 47 47 47 47 47 47 0
1 47 47 47 47 47 47 47 47 47 47 47 47 48 48 0
1 48 48 48 48 48 48 48 48 48 48 48 48 48 48 0
1 48 48 48 48 48 48 48 48 48 48 48 48 48 48 0
1 48 48 48 49 49 49 49 49 49 49 49 49 49 49 0
1 49 49 49 49 49 49 49 49 49 49 49 49 49 49 0
1 50 50 50 50 50 50 50 50 50 50 50 50 50 50 0
1 50 50 50 50 50 50 50 50 50 50 51 51 51 51 0
1 51 51 51 51 51 51 51 51 51 51 51 51 51 51 0
1 51 51 51 51 51 51 51 51 51 51 51 51 51 51 0
1 51 51 51 51 51 51 51 51 51 51 52 52 52 52 0
1 52 52 52 52 52 52 52 52 52 52 52 52 52 52 0
1 52 52 52 52 52 52 52 52 52 52 52 52 52 52 0
1 53 53 53 53 53 53 53 53 53 53 53 53 53 53 0
1 53 53 53 53 53 53 53 53 53 53 53 53 53 53 0
1 53 53 54 54 54 54 54 54 54 54 54 54 54 54 0
1 54 54 54 54 54 54 54 54 54 54 54 54 54 54 0
1 54 54 55 55 55 55 55 55 55 55 55 55 55 55 0
1 55 55 55 55 55 55 55 55 55 55 55 55 55 55 0
1 55 56 56 56 56 56 56 56 56 56 56 56 56 56 0
1 56 56 56 56 56 56 56 56 56 56 56 56 56 56 0
1 56 56 56 57 57 57 57 57 57 57 57 57 57 57 0
1 57 57 57 57 57 57 57 57 57 57 57 57 57 57 0
1 57 57 57 57 57 57 57 57 57 57 57 58 58 58 0
1 58 58 58 58 58 58 58 58 58 58 58 58 58 58 0
1 58 58 58 58 58 58 58 58 58 58 58 59 59 59 0
1 59 59 59 59 59 59 59 59 59 59 59 59 59 59 0
1 59 59 59 59 59 59 59 59 59 59 59 59 59 59 0
1 60 60 60 60 60 60 60 60 60 60 60 60 60 60 0
1 60 60 60 60 60 60 60 60 60 60 60 60 61 61 0
1 61 61 61 61 61 61 61 61 61 61 61 61 61 61 0
1 61 62 62 62 62 62 62 62 62 62 62 62 62 62 0
1 62 62 62 62 62 62 62 62 62 62 62 62 62 63 0
1 63 63 63 63 63 63 63 63 63 63 63 63 63 63 0
1 63 63 63 63 63 63 64 64 64 64 64 64 64 64 0
1 64 64 64 64 64 64 64 64 64 64 64 64 64 64 0
1 64 64 64 64 64 65 65 65 65 65 65 65 65 65 0
1 65 65 65 65 65 65 65 65 65 65 66 66 66 66 0
1 66 66 66 66 66 66 66 66 66 66 66 66 66 66 0
1 66 67 67 67 67 67 67 67 67 67 67 67 67 67 0
1 67 67 67 67 67 67 67 67 67 67 67 67 67 67 0
1 67 67 67 67 68 68 68 68 68 68 68 68 68 68 0
1 68 68 68 68 68 68 68 68 68 68 68 68 68 68 0
1 68 68 68 68 68 68 68 68 68 68 68 68 68 68 0
1 69 69 69 69 69 69 69 69 69 69 69 69 69 69 0
1 69 69 69 69 69 69 69 69 69 69 69 70 70 70 0
1 70 70 70 70 70 70 70 70 70 70 70 70 70 70 0
1 70 70 70 70 70 70 70 70 70 70 70 71 71 71 0
1 71 71 71 71 71 71 71 71 71 71 71 71 71 71 0
1 71 71 71 71 71 71 71 71 71 71 71 71 71 71 0
1 71 72 72 72 72 72 72 72 72 72 72 72 72 72 0
1 72 72 72 72 72 72 72 72 72 73 73 73 73 73 0
1 73 73 73 73 73 73 73 73 73 73 73 73 73 73 0
1 73 73 73 73 73 73 73 73 73 73 73 73 73 73 0
1 73 73 73 74 74 74 74 74 74 74 74 74 74 74 0
1 74 74 74 74 74 74 74 74 74 74 74 74 74 75 0
1 75 75 75 75 75 75 75 75 75 75 75 75 75 75 0
1 75 75 75 75 75 75 75 75 75 75 75 75 75 75 0
1 75 75 75 75 75 75 75 75 76 76 76 76 76 76 0
1 76 76 76 76 76 76 76 76 76 76 76 76 76 76 0
1 76 76 76 76 76 76 76 76 76 77 77 77 77 77 0
1 77 77 77 77 77 77 77 77 77 77 77 77 77 77 0
1 77 77 77 77 77 77 77 77 77 77 77 77 77 77 0
1 78 78 78 78 78 78 78 78 78 78 78 78 78 78 0
1 78 78 78 78 78 78 78 78 78 79 79 79 79 79 0
1 79 79 79 79 79 79 79 79 79 79 79 79 79 79 0
1 79 79 79 79 79 79 79 79 79 79 79 79 80 80 0
1 80 80 80 80 80 80 80 80 80 80 80 80 80 80 0
1 80 80 80 80 80 80 80 80 80 80 80 80 80 80 0
1 81 81 81 81 81 81 81 81 81 81 81 81 81 81 0
1 81 81 81 81 81 81 81 81 81 81 81 81 81 81 0
1 81 81 81 81 81 81 82 82 82 82 82 82 82 82 0
1 82 82 82 82 82 82 82 82 82 82 82 82 82 82 0
1 82 82 82 82 82 82 82 82 82 82 83 83 83 83 0
1 83 83 83 83 83 83 83 83 83 83 83 83 83 83 0
1 83 83 83 83 83 83 83 83 83 84 84 84 84 84 0
1 84 84 84 84 84 84 84 84 84 84 84 84 84 84 0
1 84 84 84 84 84 84 84 84 84 84 84 84 84 84 0
1 85 85 85 85 85 85 85 85 85 85 85 85 85 85 0
1 85 85 85 85 85 85 85 85 85 85 85 85 85 86 0
1 86 86 86 86 86 86 86 86 86 86 86 86 86 86 0
1 86 86 86 86 86 86 86 86 86 86 86 86 86 86 0
1 87 87 87 87 87 87 87 87 87 87 87 87 87 87 0
1 87 87 87 87 87 87 87 87 87 87 87 87 87 87 0
1 88 88 88 88 88 88 88 88 88 88 88 88 88 88 0
1 88 88 88 88 88 88 88 88 89 89 89 89 89 89 0
1 89 89 89 89 89 89 89 89 89 89 89 89 89 89 0
1 89 89 89 89 89 90 90 90 90 90 90 90 90 90 0
1 90 90 90 90 90 90 90 90 90 90 90 90 90 90 0
1 90 90 90 90 90 91 91 91 91 91 91 91 91 91 0
1 91 91 91 91 91 91 91 91 91 91 91 91 91 91 0
1 91 91 91 91 91 91 91 91 91 91 91 91 91 92 0
1 92 92 92 92 92 92 92 92 92 92 92 92 92 92 0
1 92 92 92 92 92 92 92 92 92 92 92 92 92 92 0
1 92 92 92 92 92 93 93 93 93 93 93 93 93 93 0
1 93 93 93 93 93 93 93 93 93 93 93 93 93 93 0
1 93 93 93 93 93 93 93 94 94 94 94 94 94 94 0
1 94 94 94 94 94 94 94 94 94 94 94 94 94 94 0
1 94 94 94 94 94 94 94 94 94 94 94 94 94 95 0
1 95 95 95 95 95 95 95 95 95 95 95 95 95 95 0
1 95 95 95 95 95 95 95 95 95 95 95 95 95 95 0
1 95 95 95 95 95 95 96 96 96 96 96 96 96 96 0
1 96 96 96 96 96 96 96 96 96 96 96 96 96 96 0
1 97 97 97 97 97 97 97 97 97 97 97 97 97 97 0
1 97 97 97 97 97 97 97 97 97 97 97 98 98 98 0
1 98 98 98 98 98 98 98 98 98 98 98 98 98 98 0
1 98 98 98 98 98 98 98 99 99 99 99 99 99 99 0
1 99 99 99 99 99 99 99 99 99 99 99 99 99 99 0
1 99 99 99 99 99 100 100 100 100 100 100 100 100 100 0
1 100 100 100 100 100 100 100 100 100 100 100 100 100 100 0
1  0
1 76 102 205 207 248 283 619 624 632 799 882 1036 1050 1078 0
1 1169 1307 1318 1324 1374 1378 1384 1387 1399 1422 1469 1489 1492 1675 0
1 1689 1715 1720 1890 1893 1900 1902 1941 1969 2032 2043 2075 2103 2120 0
1 2176 2193 2304 2317 2348 2400 2406 2513 2531 2604 2635 2656 2711 2713 0
1 2859 2887 2900 2910 2938 2953 0
1  0
1 96 171 261 297 301 400 499 524 525 542 594 606 673 686 0
1 731 741 755 764 803 874 890 896 1023 1036 1093 1176 1207 1273 0
1 1294 1339 1367 1428 1590 1633 1748 1749 1757 1769 1842 1898 1981 2103 0
1 2262 2281 2301 2360 2458 2492 2524 2551 2569 2620 2646 2741 2742 2768 0
1 2886 2923 2937 0
1  0
1 34 72 76 94 136 230 325 383 421 627 697 718 742 757 0
1 853 914 939 1001 1005 1015 1203 1262 1296 1357 1413 1535 1552 1556 0
1 1614 1684 1712 1738 1854 1901 2031 2038 2160 2168 2237 2266 2332 2368 0
1 2430 2432 2461 2528 2583 2638 2646 2667 2705 2721 2732 2743 2783 2950 0
1  0
1  0
1 26 154 156 188 233 248 292 308 356 394 446 467 468 572 0
1 604 637 696 699 733 1011 1032 1093 1167 1231 1239 1263 1266 1301 0
1 1326 1388 1430 1455 1470 1648 1680 1692 1710 1711 1804 1818 1860 1909 0
1 2083 2112 2150 2197 2203 2228 2278 2442 2489 2593 2714 2773 2778 2840 0
1 2951 2977 0
1  0
1 36 66 104 225 385 422 430 454 489 517 621 721 760 792 0
1 831 943 955 1011 1258 1292 1388 1482 1649 1676 1694 1821 1867 1873 0
1 1912 1958 1981 2070 2184 2254 2274 2306 2386 2533 2612 2618 2643 2836 0
1 2867 2875 2969 2981 2984 2989 0
1  0
1 10 167 378 409 433 501 527 623 641 714 716 737 739 767 0
1 938 952 994 1006 1038 1043 1123 1146 1150 1191 1314 1334 1347 1359 0
1 1479 1760 1799 1828 1860 1881 1903 1970 2028 2040 2215 2329 2354 2395 0
1 2514 2613 2793 2811 2825 2843 2871 2873 2875 2879 2925 2932 2982 0
1  0
1 274 287 301 374 410 469 553 675 691 706 723 795 893 995 0
1 1027 1031 1048 1068 1069 1096 1148 1237 1279 1416 1456 1548 1603 1630 0
1 1699 1733 1741 1814 1822 1909 1922 1947 1955 1993 2018 2101 2146 2174 0
1 2244 2339 2450 2575 2612 2623 2684 2730 2735 2760 2816 2836 2845 2866 0
1 2921 2925 2941 2943 2945 2983 0
1  0
1 157 304 325 373 435 451 520 523 530 563 591 604 711 733 0
1 757 810 845 846 852 923 937 970 1081 1121 1123 1131 1249 1429 0
1 1608 1649 1677 1698 1760 1827 1830 1874 1881 1941 1950 2015 2043 2059 0
1 2113 2145 2231 2239 2249 2315 2400 2436 2454 2477 2487 2641 2705 2775 0
1 2835 2851 2910 2966 0
1  0
1 65 160 244 265 298 311 313 330 364 412 427 521 528 544 0
1 616 771 785 864 923 1104 1118 1119 1148 1247 1253 1262 1296 1337 0
1 1443 1449 1528 1538 1732 1831 1835 1932 1939 1982 1987 2017 2019 2073 0
1 2143 2163 2184 2231 2234 2322 2329 2334 2379 2423 2434 2472 2497 2522 0
1 2586 2661 2663 2690 2760 2804 2877 2934 0
1  0
1 20 25 147 176 195 279 313 341 354 422 503 589 664 710 0
1 768 881 882 918 942 1016 1099 1142 1215 1346 1356 1530 1582 1742 0
1 1952 1975 2026 2073 2130 2227 2246 2261 2271 2324 2414 2425 2451 2452 0
1 2521 2523 2526 2529 2581 2740 2754 2806 2835 2970 0
1  0
1 29 63 148 171 233 441 529 592 661 689 793 829 860 874 0
1 878 884 972 1053 1064 1133 1174 1202 1267 1383 1447 1478 1719 1740 0
1 1829 1882 1891 1917 1923 1928 1963 1975 2071 2130 2158 2166 2291 2309 0
1 2387 2458 2460 2507 2511 2523 2632 2638 2770 2780 2806 2991 0
1  0
1 143 193 260 387 444 489 617 677 798 813 1046 1071 1204 1257 0
1 1385 1416 1421 1482 1543 1547 1557 1560 1602 1645 1703 1800 1810 1920 0
1 1980 2043 2073 2105 2226 2263 2346 2366 2416 2423 2435 2468 2488 2494 0
1 2592 2716 2752 2810 2821 2828 2988 0
1  0
1 6 137 209 237 320 324 349 484 528 565 589 613 619 646 0
1 732 867 870 970 1035 1043 1049 1075 1097 1132 1174 1214 1215 1231 0
1 1352 1393 1424 1445 1490 1513 1529 1579 1585 1596 1610 1693 1699 1700 0
1 1922 1990 2012 2078 2104 2115 2194 2243 2265 2281 2283 2529 2639 2666 0
1 2736 2788 2950 0
1  0
1 101 152 161 250 276 278 293 357 358 445 453 468 480 504 0
1 652 717 733 764 815 840 875 882 891 924 940 951 1006 1082 0
1 1129 1137 1165 1233 1237 1467 1485 1548 1562 1686 1729 1751 1776 1819 0
1 1868 1888 1946 1947 2010 2020 2043 2086 2109 2220 2241 2250 2354 2481 0
1 2555 2571 2589 2601 2616 2628 2681 2693 2721 2768 2899 2986 0
1  0
1 82 141 144 175 192 230 252 345 347 416 451 453 475 589 0
1 740 779 823 828 876 880 959 1191 1321 1330 1375 1695 1759 1761 0
1 1846 1874 1879 1937 1938 1981 2016 2074 2167 2190 2244 2248 2407 2498 0
1 2510 2539 2636 2696 2808 2836 2844 2846 2889 2896 2923 0
1  0
1 30 40 58 116 155 158 204 212 282 369 383 441 545 585 0
1 599 616 662 679 699 779 875 887 975 1143 1270 1337 1402 1521 0
1 1580 1640 1656 1881 1940 1946 1993 2020 2022 2024 2041 2056 2082 2126 0
1 2277 2396 2582 2589 2715 2716 2736 2804 2818 2881 2897 0
1  0
1 96 175 181 185 241 245 262 308 311 450 573 594 597 624 0
1 699 710 788 852 869 876 984 985 1010 1024 1049 1075 1131 1223 0
1 1344 1354 1453 1469 1498 1592 1605 1641 1676 1764 1779 1784 1802 1845 0
1 1923 1966 1990 2003 2052 2095 2104 2106 2127 2159 2323 2327 2358 2367 0
1 2504 2521 2525 2557 2590 2662 2809 2933 2938 2966 0
1  0
1 60 114 302 410 486 516 519 524 540 590 595 598 625 654 0
1 761 913 920 940 1090 1248 1256 1299 1309 1491 1518 1638 1644 1656 0
1 1828 1853 1897 2077 2099 2112 2161 2172 2183 2191 2192 2198 2202 2372 0
1 2424 2491 2500 2566 2664 2682 2683 2809 2885 0
1  0
